100 10
614 344
458 750
412 392
625 404
904 30
671 360
365 551
438 745
484 772
280 374
65 542
666 839
455 856
610 177
568 424
456 429
628 453
342 421
859 349
648 369
150 717
648 131
534 564
478 338
435 435
63 710
841 216
693 339
87 807
46 556
364 726
331 538
284 106
483 398
364 674
518 333
314 397
356 575
557 797
463 60
504 791
455 451
667 235
638 197
471 452
447 387
613 304
311 257
246 401
168 475
378 560
369 390
252 433
327 741
419 379
965 369
756 805
118 364
685 614
470 267
627 169
95 499
719 232
682 722
451 763
543 512
143 256
608 342
514 599
649 322
460 162
350 234
307 196
198 224
752 466
235 797
252 744
710 179
966 401
481 589
388 365
981 162
682 112
711 86
748 503
232 482
620 625
373 695
461 136
529 182
642 484
683 557
341 595
558 316
652 483
250 725
510 818
427 559
680 836
571 264
